data;
set Shirt := A B C;
set Department:= cutting sewing;

param NumUnit: A B C:= cutting 2000 1600 1100 sewing 1000 1500 2400;
param Profit:= A 12 B 9 C 8;
param Hours:= cutting 10 sewing 12;
param Max:= cutting 3 sewing 4;
param Cost:= cutting 8000 sewing 1000;
param MinProd:= A 9500 B 1500 C 5000;

